8123792799309574585011,11,1,2,013,7,1,2,08,2,1,2,08,11,1,2,03,11,1,2,02,11,1,2,06,15,1,2,04,5,1,2,013,6,1,2,013,10,1,2,06,12,1,2,08,4,1,2,05,14,1,2,010,3,1,2,015,5,1,2,010,3,1,2,012,10,1,2,014,2,1,2,07,8,1,2,07,12,1,2,02,10,1,2,06,7,1,2,015,5,1,2,015,9,1,2,06,7,1,2,07,1,1,2,02,3,1,2,013,4,1,2,06,1,1,2,07,6,1,2,04,6,1,2,02,11,1,2,015,8,1,2,05,12,1,2,014,11,1,2,011,11,1,2,07,3,1,2,05,1,1,2,013,1,1,2,05,1,1,2,04,4,1,2,02,13,1,2,012,8,1,2,09,11,1,2,01,7,1,2,013,4,1,2,01,13,1,2,015,9,1,2,04,9,1,2,014,14,1,2,0